CKP/CKP_n50_Instance_6.lp
\ENCODING=ISO-8859-1
\Problem name: CKP

Maximize
 obj: x1 + x2 + x3 + x4 + x5 + x6 + x7 + x8 + x9 + x10 + x11 + x12 + x13 + x14
      + x15 + x16 + x17 + x18 + x19 + x20 + x21 + x22 + x23 + x24 + x25 + x26
      + x27 + x28 + x29 + x30 + x31 + x32 + x33 + x34 + x35 + x36 + x37 + x38
      + x39 + x40 + x41 + x42 + x43 + x44 + x45 + x46 + x47 + x48 + x49 + x50
Subject To
 c1: 11234 x1 + 11235 x2 + 11236 x3 + 11269 x4 + 11270 x5 + 11271 x6 + 11304 x7
     + 11305 x8 + 11306 x9 + 11793 x10 + 11794 x11 + 11795 x12 + 11828 x13
     + 11829 x14 + 11830 x15 + 11863 x16 + 11864 x17 + 11865 x18 + 12352 x19
     + 12353 x20 + 12354 x21 + 12387 x22 + 12388 x23 + 11235 x24 + 11236 x25
     + 11269 x26 + 11271 x27 + 11304 x28 + 11306 x29 + 11793 x30 + 11794 x31
     + 11795 x32 + 11828 x33 + 11829 x34 + 11830 x35 + 11864 x36 + 11865 x37
     + 12352 x38 + 12353 x39 + 12354 x40 + 12387 x41 + 12388 x42 + 12422 x43
     + 12423 x44 + 12424 x45 + 21875 x46 + 21876 x47 + 21877 x48 + 21911 x49
     + 21946 x50 >= 326617
 c2: 11234 x1 + 11235 x2 + 11236 x3 + 11269 x4 + 11270 x5 + 11271 x6 + 11304 x7
     + 11305 x8 + 11306 x9 + 11793 x10 + 11794 x11 + 11795 x12 + 11828 x13
     + 11829 x14 + 11830 x15 + 11863 x16 + 11864 x17 + 11865 x18 + 12352 x19
     + 12353 x20 + 12354 x21 + 12387 x22 + 12388 x23 + 11235 x24 + 11236 x25
     + 11269 x26 + 11271 x27 + 11304 x28 + 11306 x29 + 11793 x30 + 11794 x31
     + 11795 x32 + 11828 x33 + 11829 x34 + 11830 x35 + 11864 x36 + 11865 x37
     + 12352 x38 + 12353 x39 + 12354 x40 + 12387 x41 + 12388 x42 + 12422 x43
     + 12423 x44 + 12424 x45 + 21875 x46 + 21876 x47 + 21877 x48 + 21911 x49
     + 21946 x50 <= 326618
Bounds
 0 <= x1 <= 1
 0 <= x2 <= 1
 0 <= x3 <= 1
 0 <= x4 <= 1
 0 <= x5 <= 1
 0 <= x6 <= 1
 0 <= x7 <= 1
 0 <= x8 <= 1
 0 <= x9 <= 1
 0 <= x10 <= 1
 0 <= x11 <= 1
 0 <= x12 <= 1
 0 <= x13 <= 1
 0 <= x14 <= 1
 0 <= x15 <= 1
 0 <= x16 <= 1
 0 <= x17 <= 1
 0 <= x18 <= 1
 0 <= x19 <= 1
 0 <= x20 <= 1
 0 <= x21 <= 1
 0 <= x22 <= 1
 0 <= x23 <= 1
 0 <= x24 <= 1
 0 <= x25 <= 1
 0 <= x26 <= 1
 0 <= x27 <= 1
 0 <= x28 <= 1
 0 <= x29 <= 1
 0 <= x30 <= 1
 0 <= x31 <= 1
 0 <= x32 <= 1
 0 <= x33 <= 1
 0 <= x34 <= 1
 0 <= x35 <= 1
 0 <= x36 <= 1
 0 <= x37 <= 1
 0 <= x38 <= 1
 0 <= x39 <= 1
 0 <= x40 <= 1
 0 <= x41 <= 1
 0 <= x42 <= 1
 0 <= x43 <= 1
 0 <= x44 <= 1
 0 <= x45 <= 1
 0 <= x46 <= 1
 0 <= x47 <= 1
 0 <= x48 <= 1
 0 <= x49 <= 1
 0 <= x50 <= 1
Binaries
 x1  x2  x3  x4  x5  x6  x7  x8  x9  x10  x11  x12  x13  x14  x15  x16  x17 
 x18  x19  x20  x21  x22  x23  x24  x25  x26  x27  x28  x29  x30  x31  x32 
 x33  x34  x35  x36  x37  x38  x39  x40  x41  x42  x43  x44  x45  x46  x47 
 x48  x49  x50 
End
