CKP/CKP_n50_Instance_6.lp.txt
\ENCODING=ISO-8859-1
\Problem name: CKP

Maximize
 obj: x1 + x2 + x3 + x4 + x5 + x6 + x7 + x8 + x9 + x10 + x11 + x12 + x13 + x14
      + x15 + x16 + x17 + x18 + x19 + x20 + x21 + x22 + x23 + x24 + x25 + x26
      + x27 + x28 + x29 + x30 + x31 + x32 + x33 + x34 + x35 + x36 + x37 + x38
      + x39 + x40 + x41 + x42 + x43 + x44 + x45 + x46 + x47 + x48 + x49 + x50
Subject To
 c1: 15436 x1 + 15437 x2 + 15438 x3 + 15473 x4 + 15474 x5 + 15475 x6 + 15510 x7
     + 15511 x8 + 15512 x9 + 16130 x10 + 16131 x11 + 16132 x12 + 16167 x13
     + 16168 x14 + 16169 x15 + 16204 x16 + 16205 x17 + 16206 x18 + 16824 x19
     + 16825 x20 + 16826 x21 + 16861 x22 + 16862 x23 + 15436 x24 + 15437 x25
     + 15438 x26 + 15474 x27 + 15475 x28 + 15510 x29 + 15512 x30 + 16130 x31
     + 16131 x32 + 16132 x33 + 16167 x34 + 16168 x35 + 16169 x36 + 16204 x37
     + 16824 x38 + 16825 x39 + 16826 x40 + 16863 x41 + 16898 x42 + 16899 x43
     + 16900 x44 + 30142 x45 + 30143 x46 + 30144 x47 + 30179 x48 + 30181 x49
     + 30217 x50 >= 428587
 c2: 15436 x1 + 15437 x2 + 15438 x3 + 15473 x4 + 15474 x5 + 15475 x6 + 15510 x7
     + 15511 x8 + 15512 x9 + 16130 x10 + 16131 x11 + 16132 x12 + 16167 x13
     + 16168 x14 + 16169 x15 + 16204 x16 + 16205 x17 + 16206 x18 + 16824 x19
     + 16825 x20 + 16826 x21 + 16861 x22 + 16862 x23 + 15436 x24 + 15437 x25
     + 15438 x26 + 15474 x27 + 15475 x28 + 15510 x29 + 15512 x30 + 16130 x31
     + 16131 x32 + 16132 x33 + 16167 x34 + 16168 x35 + 16169 x36 + 16204 x37
     + 16824 x38 + 16825 x39 + 16826 x40 + 16863 x41 + 16898 x42 + 16899 x43
     + 16900 x44 + 30142 x45 + 30143 x46 + 30144 x47 + 30179 x48 + 30181 x49
     + 30217 x50 <= 428588
Bounds
 0 <= x1 <= 1
 0 <= x2 <= 1
 0 <= x3 <= 1
 0 <= x4 <= 1
 0 <= x5 <= 1
 0 <= x6 <= 1
 0 <= x7 <= 1
 0 <= x8 <= 1
 0 <= x9 <= 1
 0 <= x10 <= 1
 0 <= x11 <= 1
 0 <= x12 <= 1
 0 <= x13 <= 1
 0 <= x14 <= 1
 0 <= x15 <= 1
 0 <= x16 <= 1
 0 <= x17 <= 1
 0 <= x18 <= 1
 0 <= x19 <= 1
 0 <= x20 <= 1
 0 <= x21 <= 1
 0 <= x22 <= 1
 0 <= x23 <= 1
 0 <= x24 <= 1
 0 <= x25 <= 1
 0 <= x26 <= 1
 0 <= x27 <= 1
 0 <= x28 <= 1
 0 <= x29 <= 1
 0 <= x30 <= 1
 0 <= x31 <= 1
 0 <= x32 <= 1
 0 <= x33 <= 1
 0 <= x34 <= 1
 0 <= x35 <= 1
 0 <= x36 <= 1
 0 <= x37 <= 1
 0 <= x38 <= 1
 0 <= x39 <= 1
 0 <= x40 <= 1
 0 <= x41 <= 1
 0 <= x42 <= 1
 0 <= x43 <= 1
 0 <= x44 <= 1
 0 <= x45 <= 1
 0 <= x46 <= 1
 0 <= x47 <= 1
 0 <= x48 <= 1
 0 <= x49 <= 1
 0 <= x50 <= 1
Binaries
 x1  x2  x3  x4  x5  x6  x7  x8  x9  x10  x11  x12  x13  x14  x15  x16  x17 
 x18  x19  x20  x21  x22  x23  x24  x25  x26  x27  x28  x29  x30  x31  x32 
 x33  x34  x35  x36  x37  x38  x39  x40  x41  x42  x43  x44  x45  x46  x47 
 x48  x49  x50 
End
